; Options: -in -smt2
(set-option :produce-unsat-assumptions true)

(declare-fun start!909 () Bool)

(assert start!909)

(declare-fun res!2885 () Bool)

(declare-fun e!1958 () Bool)

(assert (=> start!909 (=> (not res!2885) (not e!1958))))

(declare-fun jz!53 () (_ BitVec 32))

(assert (=> start!909 (= res!2885 (and (bvsle #b00000000000000000000000000000010 jz!53) (bvslt jz!53 #b00000000000000000000000000010011)))))

(assert (=> start!909 e!1958))

(assert (=> start!909 true))

(declare-datatypes ((array!258 0))(
  ( (array!259 (arr!113 (Array (_ BitVec 32) (_ BitVec 32))) (size!113 (_ BitVec 32))) )
))
(declare-fun iq!165 () array!258)

(declare-fun array_inv!63 (array!258) Bool)

(assert (=> start!909 (array_inv!63 iq!165)))

(declare-datatypes ((array!260 0))(
  ( (array!261 (arr!114 (Array (_ BitVec 32) (_ FloatingPoint 11 53))) (size!114 (_ BitVec 32))) )
))
(declare-fun q!85 () array!260)

(declare-fun array_inv!64 (array!260) Bool)

(assert (=> start!909 (array_inv!64 q!85)))

(declare-fun b!3794 () Bool)

(declare-fun res!2888 () Bool)

(assert (=> b!3794 (=> (not res!2888) (not e!1958))))

(declare-fun qInv!0 (array!260) Bool)

(assert (=> b!3794 (= res!2888 (qInv!0 q!85))))

(declare-fun b!3795 () Bool)

(declare-fun res!2886 () Bool)

(declare-fun e!1955 () Bool)

(assert (=> b!3795 (=> (not res!2886) (not e!1955))))

(declare-fun carry!58 () (_ BitVec 32))

(declare-fun i!252 () (_ BitVec 32))

(assert (=> b!3795 (= res!2886 (and (bvsge (select (arr!113 iq!165) (bvsub jz!53 #b00000000000000000000000000000001)) #b00000000100000000000000000000000) (or (= carry!58 #b00000000000000000000000000000000) (= carry!58 #b00000000000000000000000000000001)) (bvslt i!252 (bvsub jz!53 #b00000000000000000000000000000001))))))

(declare-fun lt!2588 () (_ FloatingPoint 11 53))

(declare-datatypes ((Unit!312 0))(
  ( (Unit!313) )
))
(declare-datatypes ((tuple4!152 0))(
  ( (tuple4!153 (_1!131 Unit!312) (_2!131 array!258) (_3!119 (_ BitVec 32)) (_4!76 (_ FloatingPoint 11 53))) )
))
(declare-fun e!1956 () tuple4!152)

(declare-fun b!3796 () Bool)

(declare-fun lt!2585 () array!258)

(declare-fun computeModuloWhile!0 ((_ BitVec 32) array!260 array!258 (_ BitVec 32) (_ FloatingPoint 11 53)) tuple4!152)

(assert (=> b!3796 (= e!1956 (computeModuloWhile!0 jz!53 q!85 lt!2585 jz!53 lt!2588))))

(declare-fun b!3797 () Bool)

(declare-fun res!2883 () Bool)

(assert (=> b!3797 (=> (not res!2883) (not e!1955))))

(declare-fun iqInv!0 (array!258) Bool)

(assert (=> b!3797 (= res!2883 (iqInv!0 iq!165))))

(declare-fun b!3798 () Bool)

(declare-fun e!1954 () Bool)

(declare-fun lt!2586 () (_ BitVec 32))

(assert (=> b!3798 (= e!1954 (and (not (= carry!58 #b00000000000000000000000000000000)) (not (= #b00000000000000000000000000000000 (bvand lt!2586 #b10000000000000000000000000000000))) (not (= #b00000000000000000000000000000000 (bvand (bvsub #b00000000111111111111111111111111 lt!2586) #b10000000000000000000000000000000)))))))

(declare-fun b!3799 () Bool)

(assert (=> b!3799 (= e!1958 e!1955)))

(declare-fun res!2884 () Bool)

(assert (=> b!3799 (=> (not res!2884) (not e!1955))))

(declare-fun lt!2587 () (_ FloatingPoint 11 53))

(declare-fun lt!2584 () tuple4!152)

(assert (=> b!3799 (= res!2884 (and (fp.leq (fp #b0 #b00000000000 #b0000000000000000000000000000000000000000000000000000) lt!2587) (fp.lt lt!2587 (fp #b0 #b10000000010 #b0000000000000000000000000000000000000000000000000000)) (bvsge (select (arr!113 (_2!131 lt!2584)) (bvsub jz!53 #b00000000000000000000000000000001)) #b00000000100000000000000000000000) (bvsle #b00000000000000000000000000000000 i!252) (bvsle i!252 (bvsub jz!53 #b00000000000000000000000000000001))))))

(assert (=> b!3799 (= lt!2587 (fp.sub roundNearestTiesToEven (_4!76 lt!2584) (fp.mul roundNearestTiesToEven (fp #b0 #b10000000010 #b0000000000000000000000000000000000000000000000000000) ((_ to_fp 11 53) roundNearestTiesToEven (ite (fp.isNaN (fp.mul roundNearestTiesToEven (_4!76 lt!2584) (fp #b0 #b01111111100 #b0000000000000000000000000000000000000000000000000000))) #b0000000000000000000000000000000000000000000000000000000000000000 (ite (fp.gt (fp.mul roundNearestTiesToEven (_4!76 lt!2584) (fp #b0 #b01111111100 #b0000000000000000000000000000000000000000000000000000)) ((_ to_fp 11 53) roundTowardZero #b0111111111111111111111111111111111111111111111111111111111111111)) #b0111111111111111111111111111111111111111111111111111111111111111 (ite (fp.lt (fp.mul roundNearestTiesToEven (_4!76 lt!2584) (fp #b0 #b01111111100 #b0000000000000000000000000000000000000000000000000000)) ((_ to_fp 11 53) roundTowardZero #b1000000000000000000000000000000000000000000000000000000000000000)) #b1000000000000000000000000000000000000000000000000000000000000000 ((_ fp.to_sbv 64) roundTowardZero (fp.mul roundNearestTiesToEven (_4!76 lt!2584) (fp #b0 #b01111111100 #b0000000000000000000000000000000000000000000000000000))))))))))))

(assert (=> b!3799 (= lt!2584 e!1956)))

(declare-fun c!662 () Bool)

(assert (=> b!3799 (= c!662 (bvsgt jz!53 #b00000000000000000000000000000000))))

(assert (=> b!3799 (= lt!2588 (select (arr!114 q!85) jz!53))))

(assert (=> b!3799 (= lt!2585 (array!259 ((as const (Array (_ BitVec 32) (_ BitVec 32))) #b00000000000000000000000000000000) #b00000000000000000000000000010100))))

(declare-fun b!3800 () Bool)

(assert (=> b!3800 (= e!1955 e!1954)))

(declare-fun res!2887 () Bool)

(assert (=> b!3800 (=> (not res!2887) (not e!1954))))

(declare-fun QInt!0 ((_ BitVec 32)) Bool)

(assert (=> b!3800 (= res!2887 (QInt!0 lt!2586))))

(assert (=> b!3800 (= lt!2586 (select (arr!113 iq!165) i!252))))

(declare-fun b!3801 () Bool)

(declare-fun Unit!314 () Unit!312)

(assert (=> b!3801 (= e!1956 (tuple4!153 Unit!314 lt!2585 jz!53 lt!2588))))

(assert (= (and start!909 res!2885) b!3794))

(assert (= (and b!3794 res!2888) b!3799))

(assert (= (and b!3799 c!662) b!3796))

(assert (= (and b!3799 (not c!662)) b!3801))

(assert (= (and b!3799 res!2884) b!3797))

(assert (= (and b!3797 res!2883) b!3795))

(assert (= (and b!3795 res!2886) b!3800))

(assert (= (and b!3800 res!2887) b!3798))

(declare-fun m!4689 () Bool)

(assert (=> b!3799 m!4689))

(declare-fun m!4691 () Bool)

(assert (=> b!3799 m!4691))

(declare-fun m!4693 () Bool)

(assert (=> b!3795 m!4693))

(declare-fun m!4695 () Bool)

(assert (=> b!3794 m!4695))

(declare-fun m!4697 () Bool)

(assert (=> b!3796 m!4697))

(declare-fun m!4699 () Bool)

(assert (=> start!909 m!4699))

(declare-fun m!4701 () Bool)

(assert (=> start!909 m!4701))

(declare-fun m!4703 () Bool)

(assert (=> b!3800 m!4703))

(declare-fun m!4705 () Bool)

(assert (=> b!3800 m!4705))

(declare-fun m!4707 () Bool)

(assert (=> b!3797 m!4707))

(check-sat (not b!3797) (not b!3794) (not start!909) (not b!3796) (not b!3800))
(check-sat)
(get-model)

(declare-fun d!1731 () Bool)

(assert (=> d!1731 (= (array_inv!63 iq!165) (bvsge (size!113 iq!165) #b00000000000000000000000000000000))))

(assert (=> start!909 d!1731))

(declare-fun d!1733 () Bool)

(assert (=> d!1733 (= (array_inv!64 q!85) (bvsge (size!114 q!85) #b00000000000000000000000000000000))))

(assert (=> start!909 d!1733))

(declare-fun b!3814 () Bool)

(declare-fun e!1966 () Bool)

(declare-fun lt!2599 () tuple4!152)

(assert (=> b!3814 (= e!1966 (bvsle (_3!119 lt!2599) #b00000000000000000000000000000000))))

(declare-fun b!3815 () Bool)

(declare-fun e!1965 () Bool)

(assert (=> b!3815 (= e!1965 (bvsgt jz!53 #b00000000000000000000000000000000))))

(declare-fun d!1735 () Bool)

(assert (=> d!1735 e!1966))

(declare-fun res!2898 () Bool)

(assert (=> d!1735 (=> (not res!2898) (not e!1966))))

(assert (=> d!1735 (= res!2898 (and true true (bvsle #b00000000000000000000000000000000 (_3!119 lt!2599)) (bvsle (_3!119 lt!2599) jz!53) (fp.leq (fp #b0 #b00000000000 #b0000000000000000000000000000000000000000000000000000) (_4!76 lt!2599)) (fp.leq (_4!76 lt!2599) (fp #b0 #b10000110001 #b0100000000000000000000010011111111111111111111111100))))))

(declare-fun e!1967 () tuple4!152)

(assert (=> d!1735 (= lt!2599 e!1967)))

(declare-fun c!665 () Bool)

(declare-fun lt!2603 () (_ BitVec 32))

(assert (=> d!1735 (= c!665 (bvsgt lt!2603 #b00000000000000000000000000000000))))

(assert (=> d!1735 (= lt!2603 (bvsub jz!53 #b00000000000000000000000000000001))))

(declare-fun lt!2600 () (_ FloatingPoint 11 53))

(declare-fun lt!2601 () (_ FloatingPoint 11 53))

(assert (=> d!1735 (= lt!2600 (fp.add roundNearestTiesToEven (select (arr!114 q!85) (bvsub jz!53 #b00000000000000000000000000000001)) lt!2601))))

(declare-fun lt!2602 () array!258)

(assert (=> d!1735 (= lt!2602 (array!259 (store (arr!113 lt!2585) (bvsub jz!53 jz!53) (ite (fp.isNaN (fp.sub roundNearestTiesToEven lt!2588 (fp.mul roundNearestTiesToEven (fp #b0 #b10000010111 #b0000000000000000000000000000000000000000000000000000) lt!2601))) #b00000000000000000000000000000000 (ite (fp.gt (fp.sub roundNearestTiesToEven lt!2588 (fp.mul roundNearestTiesToEven (fp #b0 #b10000010111 #b0000000000000000000000000000000000000000000000000000) lt!2601)) ((_ to_fp 11 53) roundTowardZero #b01111111111111111111111111111111)) #b01111111111111111111111111111111 (ite (fp.lt (fp.sub roundNearestTiesToEven lt!2588 (fp.mul roundNearestTiesToEven (fp #b0 #b10000010111 #b0000000000000000000000000000000000000000000000000000) lt!2601)) ((_ to_fp 11 53) roundTowardZero #b10000000000000000000000000000000)) #b10000000000000000000000000000000 ((_ fp.to_sbv 32) roundTowardZero (fp.sub roundNearestTiesToEven lt!2588 (fp.mul roundNearestTiesToEven (fp #b0 #b10000010111 #b0000000000000000000000000000000000000000000000000000) lt!2601))))))) (size!113 lt!2585)))))

(assert (=> d!1735 (= lt!2601 ((_ to_fp 11 53) roundNearestTiesToEven (ite (fp.isNaN (fp.mul roundNearestTiesToEven (fp #b0 #b01111100111 #b0000000000000000000000000000000000000000000000000000) lt!2588)) #b00000000000000000000000000000000 (ite (fp.gt (fp.mul roundNearestTiesToEven (fp #b0 #b01111100111 #b0000000000000000000000000000000000000000000000000000) lt!2588) ((_ to_fp 11 53) roundTowardZero #b01111111111111111111111111111111)) #b01111111111111111111111111111111 (ite (fp.lt (fp.mul roundNearestTiesToEven (fp #b0 #b01111100111 #b0000000000000000000000000000000000000000000000000000) lt!2588) ((_ to_fp 11 53) roundTowardZero #b10000000000000000000000000000000)) #b10000000000000000000000000000000 ((_ fp.to_sbv 32) roundTowardZero (fp.mul roundNearestTiesToEven (fp #b0 #b01111100111 #b0000000000000000000000000000000000000000000000000000) lt!2588)))))))))

(assert (=> d!1735 e!1965))

(declare-fun res!2897 () Bool)

(assert (=> d!1735 (=> (not res!2897) (not e!1965))))

(assert (=> d!1735 (= res!2897 (and (bvsle #b00000000000000000000000000000000 jz!53) (bvsle jz!53 jz!53) (fp.leq (fp #b0 #b00000000000 #b0000000000000000000000000000000000000000000000000000) lt!2588) (fp.leq lt!2588 (fp #b0 #b10000110001 #b0100000000000000000000010011111111111111111111111100))))))

(assert (=> d!1735 (= (computeModuloWhile!0 jz!53 q!85 lt!2585 jz!53 lt!2588) lt!2599)))

(declare-fun b!3816 () Bool)

(declare-fun Unit!315 () Unit!312)

(assert (=> b!3816 (= e!1967 (tuple4!153 Unit!315 lt!2602 lt!2603 lt!2600))))

(declare-fun b!3817 () Bool)

(assert (=> b!3817 (= e!1967 (computeModuloWhile!0 jz!53 q!85 lt!2602 lt!2603 lt!2600))))

(declare-fun b!3818 () Bool)

(declare-fun res!2900 () Bool)

(assert (=> b!3818 (=> (not res!2900) (not e!1965))))

(assert (=> b!3818 (= res!2900 (iqInv!0 lt!2585))))

(declare-fun b!3819 () Bool)

(declare-fun res!2899 () Bool)

(assert (=> b!3819 (=> (not res!2899) (not e!1966))))

(assert (=> b!3819 (= res!2899 (iqInv!0 (_2!131 lt!2599)))))

(assert (= (and d!1735 res!2897) b!3818))

(assert (= (and b!3818 res!2900) b!3815))

(assert (= (and d!1735 c!665) b!3817))

(assert (= (and d!1735 (not c!665)) b!3816))

(assert (= (and d!1735 res!2898) b!3819))

(assert (= (and b!3819 res!2899) b!3814))

(declare-fun m!4709 () Bool)

(assert (=> d!1735 m!4709))

(declare-fun m!4711 () Bool)

(assert (=> d!1735 m!4711))

(declare-fun m!4713 () Bool)

(assert (=> b!3817 m!4713))

(declare-fun m!4715 () Bool)

(assert (=> b!3818 m!4715))

(declare-fun m!4717 () Bool)

(assert (=> b!3819 m!4717))

(assert (=> b!3796 d!1735))

(declare-fun d!1737 () Bool)

(declare-fun res!2903 () Bool)

(declare-fun e!1970 () Bool)

(assert (=> d!1737 (=> (not res!2903) (not e!1970))))

(assert (=> d!1737 (= res!2903 (= (size!113 iq!165) #b00000000000000000000000000010100))))

(assert (=> d!1737 (= (iqInv!0 iq!165) e!1970)))

(declare-fun b!3822 () Bool)

(declare-fun lambda!157 () Int)

(declare-fun all20Int!0 (array!258 Int) Bool)

(assert (=> b!3822 (= e!1970 (all20Int!0 iq!165 lambda!157))))

(assert (= (and d!1737 res!2903) b!3822))

(declare-fun m!4719 () Bool)

(assert (=> b!3822 m!4719))

(assert (=> b!3797 d!1737))

(declare-fun d!1739 () Bool)

(assert (=> d!1739 (= (QInt!0 lt!2586) (and (bvsle #b00000000000000000000000000000000 lt!2586) (bvsle lt!2586 #b00000000111111111111111111111111)))))

(assert (=> b!3800 d!1739))

(declare-fun d!1741 () Bool)

(declare-fun res!2906 () Bool)

(declare-fun e!1973 () Bool)

(assert (=> d!1741 (=> (not res!2906) (not e!1973))))

(assert (=> d!1741 (= res!2906 (= (size!114 q!85) #b00000000000000000000000000010100))))

(assert (=> d!1741 (= (qInv!0 q!85) e!1973)))

(declare-fun b!3825 () Bool)

(declare-fun lambda!160 () Int)

(declare-fun all20!0 (array!260 Int) Bool)

(assert (=> b!3825 (= e!1973 (all20!0 q!85 lambda!160))))

(assert (= (and d!1741 res!2906) b!3825))

(declare-fun m!4721 () Bool)

(assert (=> b!3825 m!4721))

(assert (=> b!3794 d!1741))

(check-sat (not b!3825) (not b!3818) (not b!3819) (not b!3817) (not b!3822))
(check-sat)
